0 51 28 15 0 
0 36 16 37 22 44 2 52 0 
0 34 31 11 4 21 41 23 27 39 3 54 9 13 12 53 0 
0 55 33 58 17 50 57 32 6 0 
0 38 19 18 30 1 5 14 48 0 
0 46 42 24 47 45 0 
0 7 10 8 43 29 61 40 20 0 
0 59 26 35 49 25 60 56 0 
